c generated by sgen3tocnf
c nLits = 621
c actual nVars = 207
c Command: sgen3tocnf 70 36 0 0 210 3 1 0 /dev/null
p cnf 210 277
-175 -172 0
-175 -61 0
-172 -61 0
-115 -19 0
-115 -130 0
-19 -130 0
-79 -208 0
-79 -67 0
-208 -67 0
-202 -52 0
-202 -97 0
-52 -97 0
-193 -98 0
-193 -40 0
-98 -40 0
-82 -91 0
-82 -73 0
-91 -73 0
-31 -88 0
-31 -127 0
-88 -127 0
-94 -37 0
-94 -190 0
-37 -190 0
-128 -43 0
-128 -28 0
-43 -28 0
-55 -62 0
-55 -199 0
-62 -199 0
-41 -109 0
-41 -44 0
-109 -44 0
-145 -4 0
-145 -83 0
-4 -83 0
-63 -46 0
-63 -181 0
-46 -181 0
-112 -169 0
-112 -95 0
-169 -95 0
-148 -103 0
-148 -121 0
-103 -121 0
-1 -58 0
-1 -136 0
-58 -136 0
-200 -22 0
-200 -194 0
-22 -194 0
-196 -49 0
-196 -104 0
-49 -104 0
-13 -42 0
-13 -32 0
-42 -32 0
-47 -203 0
-47 -176 0
-203 -176 0
-89 -137 0
-89 -56 0
-137 -56 0
-110 -96 0
-110 -20 0
-96 -20 0
-76 -14 0
-76 -205 0
-14 -205 0
-7 -139 0
-7 -2 0
-139 -2 0
-59 -178 0
-59 -106 0
-178 -106 0
-163 -131 0
-163 -113 0
-131 -113 0
-45 -16 0
-45 -184 0
-16 -184 0
-157 -206 0
-157 -10 0
-206 -10 0
-173 -70 0
-173 -124 0
-70 -124 0
-5 -122 0
-5 -53 0
-122 -53 0
-38 -8 0
-38 -209 0
-8 -209 0
-64 -177 0
-64 -146 0
-177 -146 0
-92 -57 0
-92 -71 0
-57 -71 0
-100 -147 0
-100 -23 0
-147 -23 0
-24 -74 0
-24 -65 0
-74 -65 0
-133 -116 0
-133 -151 0
-116 -151 0
-54 -149 0
-54 -17 0
-149 -17 0
-123 -77 0
-123 -111 0
-77 -111 0
-170 -29 0
-170 -78 0
-29 -78 0
-125 -84 0
-125 -204 0
-84 -204 0
-107 -114 0
-107 -9 0
-114 -9 0
-179 -191 0
-179 -101 0
-191 -101 0
-138 -158 0
-138 -118 0
-158 -118 0
-152 -11 0
-152 -150 0
-11 -150 0
-99 -108 0
-99 -187 0
-108 -187 0
-182 -143 0
-182 -90 0
-143 -90 0
-192 -195 0
-192 -166 0
-195 -166 0
-18 -160 0
-18 -174 0
-160 -174 0
-105 -85 0
-105 -164 0
-85 -164 0
-119 -68 0
-119 -197 0
-68 -197 0
-21 -129 0
-21 -93 0
-129 -93 0
-154 -66 0
-154 -48 0
-66 -48 0
-69 -126 0
-69 -117 0
-126 -117 0
-50 -134 0
-50 -60 0
-134 -60 0
-72 -198 0
-72 -159 0
-198 -159 0
-167 -155 0
-167 -86 0
-155 -86 0
-188 -153 0
-188 -25 0
-153 -25 0
-140 -120 0
-140 -156 0
-120 -156 0
-87 -102 0
-87 -161 0
-102 -161 0
-132 -189 0
-132 -51 0
-189 -51 0
-207 -33 0
-207 -144 0
-33 -144 0
-185 -3 0
-185 -135 0
-3 -135 0
-30 -168 0
-30 -180 0
-168 -180 0
-162 -186 0
-162 -80 0
-186 -80 0
-210 -183 0
-210 -15 0
-183 -15 0
-35 -165 0
-35 -39 0
-165 -39 0
-12 -201 0
-12 -141 0
-201 -141 0
-26 -81 0
-26 -36 0
-81 -36 0
-75 -27 0
-75 -171 0
-27 -171 0
1 3 2 0
5 4 0
7 8 9 0
12 11 10 0
13 14 15 0
18 16 17 0
21 19 20 0
24 22 23 0
26 27 25 0
30 29 28 0
31 33 32 0
35 36 0
38 37 39 0
41 42 40 0
45 43 44 0
47 46 48 0
50 49 51 0
54 52 53 0
55 57 56 0
59 58 60 0
63 62 61 0
64 66 65 0
69 68 67 0
72 70 71 0
75 74 73 0
76 77 78 0
79 81 80 0
82 84 83 0
87 85 86 0
89 88 90 0
92 91 93 0
94 96 95 0
99 98 97 0
100 102 101 0
105 103 104 0
107 108 106 0
110 109 111 0
112 114 113 0
115 116 117 0
119 120 118 0
123 122 121 0
125 126 124 0
128 129 127 0
132 131 130 0
133 134 135 0
138 137 136 0
140 139 141 0
143 144 0
145 147 146 0
148 149 150 0
152 153 151 0
154 155 156 0
157 158 159 0
162 160 161 0
163 165 164 0
167 168 166 0
170 169 171 0
173 172 174 0
175 177 176 0
179 178 180 0
182 183 181 0
185 186 184 0
188 189 187 0
192 191 190 0
193 195 194 0
196 198 197 0
200 201 199 0
202 203 204 0
207 206 205 0
210 208 209 0
